50
324 621 9 983 823 1000 264 200 55 194 25 692 366 816 761 350 167 348 31 649 190 149 889 438 947 981 664 250 148 247 737 512 298 18 352 393 70 250 296 416 494 566 850 295 95 304 217 576 477 322 
422 722 110 1084 924 1102 362 298 155 295 125 792 465 915 863 452 267 448 129 750 289 250 988 538 1049 1080 764 349 248 349 837 614 398 118 453 493 171 349 394 516 592 665 950 396 197 405 317 675 577 421 
10454
